b"Opening JSON file..\nfn: input_218.txt\nmetrics: ['crossing_angle_maximization', 'vertex_resolution']\ngraph: tree 2 7\ngenerating graph of 255 nodes\ngabriel 0.9979916701558977\nangular_resolution 1.0\nneighborhood_preservation 1\nstress 33.95073621126743\ncrossings 8541\ncrossing_angle_maximization 0.9853914674487304\naspect_ratio 0.027040183544158936\nvertex_resolution 0.9453285224735737\nedge_uniformity 18.363880157470703\n"
