b"Opening JSON file..\nfn: input_85.txt\nmetrics: ['aspect_ratio', 'angular_resolution']\ngraph: tree 2 4\ngenerating graph of 31 nodes\nangular_resolution 1.0\naspect_ratio 0.043835461139678955\ncrossing_angle_maximization 0.9820992403777934\nvertex_resolution 0.9607171043753624\ngabriel 0.8894336223602295\ncrossings 57\nedge_uniformity 5.785480499267578\nstress 12.06187948521711\nneighborhood_preservation 1\n"
