b"Opening JSON file..\nfn: input_121.txt\nmetrics: ['crossings', 'crossing_angle_maximization']\ngraph: tree 2 5\ngenerating graph of 63 nodes\nneighborhood_preservation 1\nvertex_resolution 0.9777168408036232\naspect_ratio 0.29673439264297485\ncrossings 50\nstress 11.098058544958654\nangular_resolution 1.0\ngabriel 0.9130947664380074\ncrossing_angle_maximization 0.935849676886923\nedge_uniformity 7.0201239585876465\n"
